/*********************************************
 * OPL 12.10.0.0 Data
 * Author: Kinast
 * Creation date: Aug 17, 2021 at 11:48:17 AM
 *********************************************/

 nOrders = 50;
 nTasks = 600;

 nWorkgroups = 10;
 nWorkstations = 50;

 nCobots = 0;
 cobotTimeFactor = 0.7;

 workstations = {
 	< 0, "Workstation 0", 0, 1.02, 0.89, 1, 1 >,
 	< 1, "Workstation 1", 1, 1.18, 0.82, 1, 1 >,
 	< 2, "Workstation 2", 2, 0.76, 0.89, 1, 3 >,
 	< 3, "Workstation 3", 3, 0.95, 0.8, 1, 1 >,
 	< 4, "Workstation 4", 0, 1.16, 0.79, 1, 1 >,
 	< 5, "Workstation 5", 4, 0.91, 1.21, 1, 1 >,
 	< 6, "Workstation 6", 1, 0.88, 1.17, 1, 1 >,
 	< 7, "Workstation 7", 1, 1.23, 0.87, 1, 5 >,
 	< 8, "Workstation 8", 5, 0.8, 1.01, 1, 2 >,
 	< 9, "Workstation 9", 6, 0.82, 1.1, 1, 1 >,
 	< 10, "Workstation 10", 7, 0.78, 0.87, 1, 2 >,
 	< 11, "Workstation 11", 6, 0.94, 1.06, 1, 1 >,
 	< 12, "Workstation 12", 1, 0.75, 1.18, 1, 5 >,
 	< 13, "Workstation 13", 7, 1.04, 1.11, 1, 3 >,
 	< 14, "Workstation 14", 8, 1.16, 1.17, 1, 1 >,
 	< 15, "Workstation 15", 4, 0.9, 1.12, 1, 1 >,
 	< 16, "Workstation 16", 5, 1.04, 1.05, 1, 2 >,
 	< 17, "Workstation 17", 9, 0.9, 0.84, 1, 1 >,
 	< 18, "Workstation 18", 6, 1.09, 0.85, 1, 5 >,
 	< 19, "Workstation 19", 0, 0.92, 1.13, 1, 5 >,
 	< 20, "Workstation 20", 9, 0.89, 1.2, 1, 5 >,
 	< 21, "Workstation 21", 2, 0.94, 0.79, 1, 3 >,
 	< 22, "Workstation 22", 4, 0.87, 1.21, 1, 2 >,
 	< 23, "Workstation 23", 4, 0.89, 1.09, 1, 5 >,
 	< 24, "Workstation 24", 5, 1.17, 1.23, 1, 1 >,
 	< 25, "Workstation 25", 3, 0.99, 1.07, 1, 2 >,
 	< 26, "Workstation 26", 7, 0.79, 0.97, 1, 1 >,
 	< 27, "Workstation 27", 2, 0.91, 1.09, 1, 5 >,
 	< 28, "Workstation 28", 2, 1.23, 0.93, 1, 1 >,
 	< 29, "Workstation 29", 8, 0.79, 0.86, 1, 1 >,
 	< 30, "Workstation 30", 5, 1.19, 1.15, 1, 5 >,
 	< 31, "Workstation 31", 3, 0.94, 1.22, 1, 4 >,
 	< 32, "Workstation 32", 8, 0.91, 1.22, 1, 1 >,
 	< 33, "Workstation 33", 7, 1.02, 1.21, 1, 2 >,
 	< 34, "Workstation 34", 4, 0.92, 1.21, 1, 2 >,
 	< 35, "Workstation 35", 9, 1.17, 0.88, 1, 1 >,
 	< 36, "Workstation 36", 6, 0.82, 1.11, 1, 5 >,
 	< 37, "Workstation 37", 3, 1.02, 0.82, 1, 3 >,
 	< 38, "Workstation 38", 3, 1.13, 1.13, 1, 1 >,
 	< 39, "Workstation 39", 8, 0.83, 0.84, 1, 3 >,
 	< 40, "Workstation 40", 8, 1.1, 0.93, 1, 2 >,
 	< 41, "Workstation 41", 5, 1, 1.13, 1, 1 >,
 	< 42, "Workstation 42", 1, 1.13, 1.13, 1, 5 >,
 	< 43, "Workstation 43", 0, 0.77, 0.87, 1, 3 >,
 	< 44, "Workstation 44", 0, 0.79, 1.16, 1, 2 >,
 	< 45, "Workstation 45", 9, 0.83, 1.23, 1, 1 >,
 	< 46, "Workstation 46", 2, 0.87, 1.04, 1, 5 >,
 	< 47, "Workstation 47", 6, 0.85, 1.03, 1, 4 >,
 	< 48, "Workstation 48", 7, 1.04, 0.94, 1, 4 >,
 	< 49, "Workstation 49", 9, 1.24, 1.13, 1, 1 >
 };

 tasks = {
 	// order 0
 	< 0, 0, 4, 0, 0, 115, 4, -1 >,
 	< 1, 0, 6, 0, 0, 110, 1, 0 >,
 	< 2, 0, 5, 58, 0, 177, 0, 1 >,
 	< 3, 0, 2, 0, 0, 196, 9, 2 >,
 	< 4, 0, 10, 0, 0, 128, 3, 3 >,
 	< 5, 0, 3, 0, 61, 146, 7, 4 >,
 	< 6, 0, 2, 0, 59, 155, 2, 5 >,
 	< 7, 0, 1, 0, 37, 136, 6, 6 >,
 	< 8, 0, 8, 0, 0, 122, 8, 7 >,
 	< 9, 0, 4, 50, 0, 179, 5, 8 >,
 	< 10, 0, 10, 0, 50, 124, 4, 9 >,
 	< 11, 0, 5, 54, 30, 101, 1, 10 >,
 	// order 1
 	< 12, 1, 1, 79, 0, 123, 0, -1 >,
 	< 13, 1, 9, 36, 0, 132, 9, 12 >,
 	< 14, 1, 9, 34, 67, 183, 3, 13 >,
 	< 15, 1, 7, 80, 0, 100, 7, 14 >,
 	< 16, 1, 4, 66, 0, 126, 2, 15 >,
 	< 17, 1, 2, 0, 90, 174, 6, 16 >,
 	< 18, 1, 7, 36, 0, 195, 8, 17 >,
 	< 19, 1, 5, 0, 71, 130, 5, 18 >,
 	< 20, 1, 2, 62, 0, 134, 4, 19 >,
 	< 21, 1, 8, 80, 35, 143, 1, 20 >,
 	< 22, 1, 10, 30, 95, 119, 0, 21 >,
 	< 23, 1, 9, 73, 0, 115, 9, 22 >,
 	// order 2
 	< 24, 2, 5, 43, 98, 141, 3, -1 >,
 	< 25, 2, 6, 0, 0, 193, 7, 24 >,
 	< 26, 2, 2, 0, 70, 136, 2, 25 >,
 	< 27, 2, 5, 63, 70, 129, 6, 26 >,
 	< 28, 2, 8, 0, 51, 108, 8, 27 >,
 	< 29, 2, 7, 0, 0, 140, 5, 28 >,
 	< 30, 2, 1, 100, 0, 128, 4, 29 >,
 	< 31, 2, 9, 56, 38, 112, 1, 30 >,
 	< 32, 2, 3, 66, 66, 119, 0, 31 >,
 	< 33, 2, 2, 85, 65, 196, 9, 32 >,
 	< 34, 2, 8, 78, 0, 152, 3, 33 >,
 	< 35, 2, 7, 85, 41, 198, 7, 34 >,
 	// order 3
 	< 36, 3, 10, 0, 0, 177, 2, -1 >,
 	< 37, 3, 3, 0, 68, 165, 6, 36 >,
 	< 38, 3, 6, 0, 0, 108, 8, 37 >,
 	< 39, 3, 8, 85, 63, 145, 5, 38 >,
 	< 40, 3, 5, 0, 30, 124, 4, 39 >,
 	< 41, 3, 2, 72, 0, 171, 1, 40 >,
 	< 42, 3, 10, 0, 35, 172, 0, 41 >,
 	< 43, 3, 7, 58, 0, 186, 9, 42 >,
 	< 44, 3, 1, 0, 0, 186, 3, 43 >,
 	< 45, 3, 5, 0, 72, 149, 7, 44 >,
 	< 46, 3, 8, 99, 0, 111, 2, 45 >,
 	< 47, 3, 8, 57, 0, 187, 6, 46 >,
 	// order 4
 	< 48, 4, 6, 92, 0, 183, 8, -1 >,
 	< 49, 4, 7, 0, 98, 136, 5, 48 >,
 	< 50, 4, 2, 0, 0, 148, 4, 49 >,
 	< 51, 4, 7, 0, 0, 108, 1, 50 >,
 	< 52, 4, 7, 96, 0, 200, 0, 51 >,
 	< 53, 4, 2, 88, 31, 144, 9, 52 >,
 	< 54, 4, 4, 0, 0, 153, 3, 53 >,
 	< 55, 4, 6, 41, 0, 116, 7, 54 >,
 	< 56, 4, 6, 0, 0, 142, 2, 55 >,
 	< 57, 4, 9, 0, 0, 158, 6, 56 >,
 	< 58, 4, 6, 0, 82, 154, 8, 57 >,
 	< 59, 4, 5, 70, 43, 170, 5, 58 >,
 	// order 5
 	< 60, 5, 8, 0, 0, 172, 4, -1 >,
 	< 61, 5, 2, 0, 40, 195, 1, 60 >,
 	< 62, 5, 6, 75, 0, 117, 0, 61 >,
 	< 63, 5, 1, 66, 0, 152, 9, 62 >,
 	< 64, 5, 6, 87, 0, 132, 3, 63 >,
 	< 65, 5, 5, 0, 88, 180, 7, 64 >,
 	< 66, 5, 6, 74, 63, 143, 2, 65 >,
 	< 67, 5, 8, 61, 0, 198, 6, 66 >,
 	< 68, 5, 3, 0, 0, 199, 8, 67 >,
 	< 69, 5, 7, 47, 67, 189, 5, 68 >,
 	< 70, 5, 3, 0, 0, 163, 4, 69 >,
 	< 71, 5, 10, 52, 47, 184, 1, 70 >,
 	// order 6
 	< 72, 6, 8, 54, 0, 164, 0, -1 >,
 	< 73, 6, 3, 99, 49, 198, 9, 72 >,
 	< 74, 6, 1, 0, 54, 168, 3, 73 >,
 	< 75, 6, 5, 0, 73, 108, 7, 74 >,
 	< 76, 6, 2, 0, 51, 176, 2, 75 >,
 	< 77, 6, 3, 0, 63, 142, 6, 76 >,
 	< 78, 6, 9, 0, 0, 123, 8, 77 >,
 	< 79, 6, 5, 95, 0, 145, 5, 78 >,
 	< 80, 6, 9, 0, 48, 191, 4, 79 >,
 	< 81, 6, 2, 90, 0, 125, 1, 80 >,
 	< 82, 6, 6, 0, 0, 163, 0, 81 >,
 	< 83, 6, 8, 64, 0, 112, 9, 82 >,
 	// order 7
 	< 84, 7, 9, 97, 0, 128, 3, -1 >,
 	< 85, 7, 9, 0, 36, 131, 7, 84 >,
 	< 86, 7, 10, 66, 44, 174, 2, 85 >,
 	< 87, 7, 9, 0, 0, 101, 6, 86 >,
 	< 88, 7, 2, 56, 50, 195, 8, 87 >,
 	< 89, 7, 3, 70, 0, 163, 5, 88 >,
 	< 90, 7, 10, 0, 62, 146, 4, 89 >,
 	< 91, 7, 10, 68, 0, 181, 1, 90 >,
 	< 92, 7, 3, 68, 0, 132, 0, 91 >,
 	< 93, 7, 1, 0, 93, 195, 9, 92 >,
 	< 94, 7, 3, 0, 0, 196, 3, 93 >,
 	< 95, 7, 1, 44, 0, 134, 7, 94 >,
 	// order 8
 	< 96, 8, 7, 0, 0, 163, 2, -1 >,
 	< 97, 8, 7, 74, 53, 175, 6, 96 >,
 	< 98, 8, 9, 85, 44, 191, 8, 97 >,
 	< 99, 8, 1, 55, 96, 182, 5, 98 >,
 	< 100, 8, 1, 66, 0, 149, 4, 99 >,
 	< 101, 8, 9, 60, 81, 166, 1, 100 >,
 	< 102, 8, 2, 69, 42, 187, 0, 101 >,
 	< 103, 8, 5, 50, 0, 106, 9, 102 >,
 	< 104, 8, 1, 66, 44, 105, 3, 103 >,
 	< 105, 8, 10, 89, 0, 140, 7, 104 >,
 	< 106, 8, 9, 0, 38, 135, 2, 105 >,
 	< 107, 8, 5, 92, 94, 107, 6, 106 >,
 	// order 9
 	< 108, 9, 4, 91, 97, 186, 8, -1 >,
 	< 109, 9, 10, 49, 82, 198, 5, 108 >,
 	< 110, 9, 6, 87, 78, 179, 4, 109 >,
 	< 111, 9, 5, 0, 62, 180, 1, 110 >,
 	< 112, 9, 10, 0, 0, 106, 0, 111 >,
 	< 113, 9, 6, 97, 0, 117, 9, 112 >,
 	< 114, 9, 2, 0, 96, 197, 3, 113 >,
 	< 115, 9, 6, 0, 0, 184, 7, 114 >,
 	< 116, 9, 10, 82, 0, 122, 2, 115 >,
 	< 117, 9, 1, 67, 33, 109, 6, 116 >,
 	< 118, 9, 5, 43, 85, 192, 8, 117 >,
 	< 119, 9, 4, 86, 0, 196, 5, 118 >,
 	// order 10
 	< 120, 10, 4, 0, 87, 156, 4, -1 >,
 	< 121, 10, 10, 79, 0, 168, 1, 120 >,
 	< 122, 10, 4, 0, 68, 106, 0, 121 >,
 	< 123, 10, 9, 0, 0, 152, 9, 122 >,
 	< 124, 10, 10, 0, 51, 171, 3, 123 >,
 	< 125, 10, 4, 81, 0, 104, 7, 124 >,
 	< 126, 10, 3, 0, 0, 140, 2, 125 >,
 	< 127, 10, 10, 64, 59, 149, 6, 126 >,
 	< 128, 10, 6, 36, 60, 115, 8, 127 >,
 	< 129, 10, 7, 0, 0, 172, 5, 128 >,
 	< 130, 10, 1, 0, 0, 127, 4, 129 >,
 	< 131, 10, 5, 60, 91, 150, 1, 130 >,
 	// order 11
 	< 132, 11, 8, 0, 76, 188, 0, -1 >,
 	< 133, 11, 2, 87, 0, 196, 9, 132 >,
 	< 134, 11, 6, 0, 85, 195, 3, 133 >,
 	< 135, 11, 4, 0, 92, 155, 7, 134 >,
 	< 136, 11, 7, 57, 0, 200, 2, 135 >,
 	< 137, 11, 1, 0, 0, 196, 6, 136 >,
 	< 138, 11, 2, 0, 76, 191, 8, 137 >,
 	< 139, 11, 8, 0, 61, 105, 5, 138 >,
 	< 140, 11, 3, 0, 44, 139, 4, 139 >,
 	< 141, 11, 2, 63, 52, 111, 1, 140 >,
 	< 142, 11, 8, 0, 0, 131, 0, 141 >,
 	< 143, 11, 9, 0, 49, 166, 9, 142 >,
 	// order 12
 	< 144, 12, 9, 0, 90, 184, 3, -1 >,
 	< 145, 12, 8, 0, 86, 102, 7, 144 >,
 	< 146, 12, 7, 0, 94, 164, 2, 145 >,
 	< 147, 12, 4, 58, 51, 130, 6, 146 >,
 	< 148, 12, 7, 82, 63, 170, 8, 147 >,
 	< 149, 12, 5, 0, 0, 162, 5, 148 >,
 	< 150, 12, 5, 85, 0, 119, 4, 149 >,
 	< 151, 12, 3, 55, 36, 199, 1, 150 >,
 	< 152, 12, 7, 79, 34, 155, 0, 151 >,
 	< 153, 12, 5, 30, 92, 198, 9, 152 >,
 	< 154, 12, 4, 0, 0, 116, 3, 153 >,
 	< 155, 12, 1, 0, 0, 159, 7, 154 >,
 	// order 13
 	< 156, 13, 4, 59, 0, 176, 2, -1 >,
 	< 157, 13, 9, 61, 0, 184, 6, 156 >,
 	< 158, 13, 1, 0, 0, 132, 8, 157 >,
 	< 159, 13, 10, 0, 0, 113, 5, 158 >,
 	< 160, 13, 5, 0, 0, 138, 4, 159 >,
 	< 161, 13, 1, 70, 60, 105, 1, 160 >,
 	< 162, 13, 8, 0, 100, 151, 0, 161 >,
 	< 163, 13, 6, 96, 0, 151, 9, 162 >,
 	< 164, 13, 10, 0, 99, 185, 3, 163 >,
 	< 165, 13, 2, 64, 32, 126, 7, 164 >,
 	< 166, 13, 5, 0, 97, 195, 2, 165 >,
 	< 167, 13, 6, 77, 73, 107, 6, 166 >,
 	// order 14
 	< 168, 14, 5, 82, 91, 103, 8, -1 >,
 	< 169, 14, 9, 80, 91, 154, 5, 168 >,
 	< 170, 14, 2, 0, 0, 104, 4, 169 >,
 	< 171, 14, 6, 42, 0, 191, 1, 170 >,
 	< 172, 14, 4, 46, 36, 105, 0, 171 >,
 	< 173, 14, 6, 74, 0, 161, 9, 172 >,
 	< 174, 14, 10, 84, 0, 124, 3, 173 >,
 	< 175, 14, 9, 0, 72, 107, 7, 174 >,
 	< 176, 14, 4, 0, 70, 170, 2, 175 >,
 	< 177, 14, 8, 66, 0, 179, 6, 176 >,
 	< 178, 14, 4, 42, 0, 181, 8, 177 >,
 	< 179, 14, 6, 0, 100, 132, 5, 178 >,
 	// order 15
 	< 180, 15, 8, 0, 48, 164, 4, -1 >,
 	< 181, 15, 4, 0, 87, 168, 1, 180 >,
 	< 182, 15, 6, 65, 33, 153, 0, 181 >,
 	< 183, 15, 7, 0, 0, 132, 9, 182 >,
 	< 184, 15, 9, 0, 0, 148, 3, 183 >,
 	< 185, 15, 3, 0, 80, 148, 7, 184 >,
 	< 186, 15, 8, 66, 49, 132, 2, 185 >,
 	< 187, 15, 3, 54, 57, 127, 6, 186 >,
 	< 188, 15, 8, 84, 0, 184, 8, 187 >,
 	< 189, 15, 1, 0, 0, 127, 5, 188 >,
 	< 190, 15, 9, 57, 61, 132, 4, 189 >,
 	< 191, 15, 10, 0, 0, 126, 1, 190 >,
 	// order 16
 	< 192, 16, 7, 64, 0, 183, 0, -1 >,
 	< 193, 16, 1, 46, 86, 100, 9, 192 >,
 	< 194, 16, 3, 0, 0, 104, 3, 193 >,
 	< 195, 16, 2, 58, 0, 142, 7, 194 >,
 	< 196, 16, 4, 0, 44, 185, 2, 195 >,
 	< 197, 16, 3, 0, 0, 183, 6, 196 >,
 	< 198, 16, 1, 0, 0, 134, 8, 197 >,
 	< 199, 16, 7, 67, 0, 162, 5, 198 >,
 	< 200, 16, 10, 0, 0, 180, 4, 199 >,
 	< 201, 16, 9, 0, 0, 159, 1, 200 >,
 	< 202, 16, 1, 0, 49, 159, 0, 201 >,
 	< 203, 16, 6, 71, 48, 104, 9, 202 >,
 	// order 17
 	< 204, 17, 3, 0, 96, 183, 3, -1 >,
 	< 205, 17, 4, 63, 97, 183, 7, 204 >,
 	< 206, 17, 3, 96, 0, 146, 2, 205 >,
 	< 207, 17, 2, 0, 67, 150, 6, 206 >,
 	< 208, 17, 10, 0, 0, 176, 8, 207 >,
 	< 209, 17, 4, 59, 52, 175, 5, 208 >,
 	< 210, 17, 8, 64, 57, 138, 4, 209 >,
 	< 211, 17, 3, 0, 0, 132, 1, 210 >,
 	< 212, 17, 8, 75, 0, 114, 0, 211 >,
 	< 213, 17, 2, 0, 0, 105, 9, 212 >,
 	< 214, 17, 9, 0, 0, 173, 3, 213 >,
 	< 215, 17, 6, 0, 56, 117, 7, 214 >,
 	// order 18
 	< 216, 18, 5, 36, 59, 120, 2, -1 >,
 	< 217, 18, 1, 32, 81, 108, 6, 216 >,
 	< 218, 18, 10, 0, 0, 120, 8, 217 >,
 	< 219, 18, 8, 0, 96, 162, 5, 218 >,
 	< 220, 18, 3, 0, 84, 149, 4, 219 >,
 	< 221, 18, 6, 0, 96, 160, 1, 220 >,
 	< 222, 18, 4, 0, 0, 172, 0, 221 >,
 	< 223, 18, 6, 0, 0, 114, 9, 222 >,
 	< 224, 18, 5, 0, 0, 108, 3, 223 >,
 	< 225, 18, 4, 98, 95, 119, 7, 224 >,
 	< 226, 18, 6, 99, 0, 144, 2, 225 >,
 	< 227, 18, 6, 0, 41, 188, 6, 226 >,
 	// order 19
 	< 228, 19, 10, 76, 37, 138, 8, -1 >,
 	< 229, 19, 4, 0, 67, 160, 5, 228 >,
 	< 230, 19, 10, 46, 0, 174, 4, 229 >,
 	< 231, 19, 2, 0, 42, 180, 1, 230 >,
 	< 232, 19, 7, 45, 0, 114, 0, 231 >,
 	< 233, 19, 7, 0, 64, 154, 9, 232 >,
 	< 234, 19, 10, 0, 0, 122, 3, 233 >,
 	< 235, 19, 9, 66, 99, 143, 7, 234 >,
 	< 236, 19, 9, 58, 68, 112, 2, 235 >,
 	< 237, 19, 8, 0, 55, 200, 6, 236 >,
 	< 238, 19, 8, 35, 0, 197, 8, 237 >,
 	< 239, 19, 5, 97, 51, 151, 5, 238 >,
 	// order 20
 	< 240, 20, 5, 78, 61, 101, 4, -1 >,
 	< 241, 20, 4, 0, 44, 187, 1, 240 >,
 	< 242, 20, 8, 74, 0, 163, 0, 241 >,
 	< 243, 20, 8, 0, 87, 187, 9, 242 >,
 	< 244, 20, 2, 38, 0, 113, 3, 243 >,
 	< 245, 20, 10, 38, 31, 122, 7, 244 >,
 	< 246, 20, 2, 0, 59, 192, 2, 245 >,
 	< 247, 20, 7, 81, 65, 169, 6, 246 >,
 	< 248, 20, 8, 47, 0, 169, 8, 247 >,
 	< 249, 20, 8, 94, 91, 149, 5, 248 >,
 	< 250, 20, 7, 0, 0, 156, 4, 249 >,
 	< 251, 20, 9, 0, 0, 149, 1, 250 >,
 	// order 21
 	< 252, 21, 1, 43, 73, 152, 0, -1 >,
 	< 253, 21, 1, 81, 0, 134, 9, 252 >,
 	< 254, 21, 2, 55, 0, 177, 3, 253 >,
 	< 255, 21, 2, 98, 0, 115, 7, 254 >,
 	< 256, 21, 4, 35, 0, 165, 2, 255 >,
 	< 257, 21, 8, 0, 54, 177, 6, 256 >,
 	< 258, 21, 4, 56, 0, 188, 8, 257 >,
 	< 259, 21, 6, 0, 76, 162, 5, 258 >,
 	< 260, 21, 9, 0, 72, 170, 4, 259 >,
 	< 261, 21, 6, 0, 77, 138, 1, 260 >,
 	< 262, 21, 1, 0, 53, 175, 0, 261 >,
 	< 263, 21, 9, 0, 0, 196, 9, 262 >,
 	// order 22
 	< 264, 22, 8, 90, 0, 134, 3, -1 >,
 	< 265, 22, 10, 70, 69, 116, 7, 264 >,
 	< 266, 22, 9, 0, 0, 160, 2, 265 >,
 	< 267, 22, 3, 0, 0, 149, 6, 266 >,
 	< 268, 22, 7, 0, 0, 140, 8, 267 >,
 	< 269, 22, 4, 83, 0, 171, 5, 268 >,
 	< 270, 22, 1, 31, 0, 199, 4, 269 >,
 	< 271, 22, 7, 87, 0, 171, 1, 270 >,
 	< 272, 22, 5, 39, 55, 130, 0, 271 >,
 	< 273, 22, 6, 0, 33, 129, 9, 272 >,
 	< 274, 22, 1, 0, 73, 166, 3, 273 >,
 	< 275, 22, 9, 0, 0, 155, 7, 274 >,
 	// order 23
 	< 276, 23, 4, 99, 68, 125, 2, -1 >,
 	< 277, 23, 6, 94, 60, 180, 6, 276 >,
 	< 278, 23, 3, 79, 65, 115, 8, 277 >,
 	< 279, 23, 2, 0, 65, 193, 5, 278 >,
 	< 280, 23, 10, 0, 42, 132, 4, 279 >,
 	< 281, 23, 9, 0, 69, 139, 1, 280 >,
 	< 282, 23, 5, 0, 75, 129, 0, 281 >,
 	< 283, 23, 5, 0, 89, 157, 9, 282 >,
 	< 284, 23, 4, 65, 97, 100, 3, 283 >,
 	< 285, 23, 8, 0, 44, 131, 7, 284 >,
 	< 286, 23, 8, 77, 0, 144, 2, 285 >,
 	< 287, 23, 6, 0, 0, 179, 6, 286 >,
 	// order 24
 	< 288, 24, 6, 91, 0, 182, 8, -1 >,
 	< 289, 24, 3, 46, 0, 173, 5, 288 >,
 	< 290, 24, 1, 0, 95, 160, 4, 289 >,
 	< 291, 24, 4, 45, 0, 131, 1, 290 >,
 	< 292, 24, 2, 0, 0, 135, 0, 291 >,
 	< 293, 24, 1, 59, 0, 163, 9, 292 >,
 	< 294, 24, 9, 31, 33, 200, 3, 293 >,
 	< 295, 24, 7, 37, 81, 118, 7, 294 >,
 	< 296, 24, 6, 98, 0, 199, 2, 295 >,
 	< 297, 24, 8, 35, 67, 133, 6, 296 >,
 	< 298, 24, 9, 75, 0, 153, 8, 297 >,
 	< 299, 24, 6, 0, 0, 182, 5, 298 >,
 	// order 25
 	< 300, 25, 7, 56, 99, 178, 4, -1 >,
 	< 301, 25, 10, 96, 87, 127, 1, 300 >,
 	< 302, 25, 5, 0, 47, 117, 0, 301 >,
 	< 303, 25, 2, 0, 60, 113, 9, 302 >,
 	< 304, 25, 10, 0, 42, 166, 3, 303 >,
 	< 305, 25, 5, 38, 0, 179, 7, 304 >,
 	< 306, 25, 9, 69, 70, 110, 2, 305 >,
 	< 307, 25, 3, 0, 34, 113, 6, 306 >,
 	< 308, 25, 1, 33, 0, 177, 8, 307 >,
 	< 309, 25, 1, 0, 0, 137, 5, 308 >,
 	< 310, 25, 3, 0, 0, 149, 4, 309 >,
 	< 311, 25, 7, 0, 0, 181, 1, 310 >,
 	// order 26
 	< 312, 26, 2, 0, 0, 182, 0, -1 >,
 	< 313, 26, 4, 0, 0, 159, 9, 312 >,
 	< 314, 26, 6, 77, 0, 193, 3, 313 >,
 	< 315, 26, 9, 0, 0, 100, 7, 314 >,
 	< 316, 26, 10, 65, 92, 141, 2, 315 >,
 	< 317, 26, 5, 90, 78, 152, 6, 316 >,
 	< 318, 26, 1, 0, 86, 141, 8, 317 >,
 	< 319, 26, 1, 0, 51, 169, 5, 318 >,
 	< 320, 26, 7, 83, 0, 126, 4, 319 >,
 	< 321, 26, 5, 0, 0, 135, 1, 320 >,
 	< 322, 26, 1, 0, 0, 172, 0, 321 >,
 	< 323, 26, 5, 100, 0, 109, 9, 322 >,
 	// order 27
 	< 324, 27, 9, 0, 63, 175, 3, -1 >,
 	< 325, 27, 1, 0, 0, 114, 7, 324 >,
 	< 326, 27, 3, 85, 74, 170, 2, 325 >,
 	< 327, 27, 3, 92, 0, 169, 6, 326 >,
 	< 328, 27, 2, 63, 0, 120, 8, 327 >,
 	< 329, 27, 6, 71, 36, 197, 5, 328 >,
 	< 330, 27, 5, 50, 47, 117, 4, 329 >,
 	< 331, 27, 3, 78, 87, 134, 1, 330 >,
 	< 332, 27, 1, 71, 0, 139, 0, 331 >,
 	< 333, 27, 8, 0, 97, 193, 9, 332 >,
 	< 334, 27, 6, 94, 37, 127, 3, 333 >,
 	< 335, 27, 2, 94, 33, 131, 7, 334 >,
 	// order 28
 	< 336, 28, 1, 59, 61, 105, 2, -1 >,
 	< 337, 28, 7, 0, 0, 199, 6, 336 >,
 	< 338, 28, 4, 62, 0, 162, 8, 337 >,
 	< 339, 28, 2, 0, 35, 155, 5, 338 >,
 	< 340, 28, 1, 0, 0, 133, 4, 339 >,
 	< 341, 28, 10, 35, 79, 111, 1, 340 >,
 	< 342, 28, 8, 50, 88, 167, 0, 341 >,
 	< 343, 28, 10, 54, 0, 186, 9, 342 >,
 	< 344, 28, 10, 69, 50, 112, 3, 343 >,
 	< 345, 28, 7, 100, 0, 110, 7, 344 >,
 	< 346, 28, 9, 50, 72, 107, 2, 345 >,
 	< 347, 28, 8, 99, 51, 127, 6, 346 >,
 	// order 29
 	< 348, 29, 2, 0, 0, 176, 8, -1 >,
 	< 349, 29, 7, 43, 0, 145, 5, 348 >,
 	< 350, 29, 7, 35, 84, 173, 4, 349 >,
 	< 351, 29, 7, 62, 0, 171, 1, 350 >,
 	< 352, 29, 7, 34, 59, 123, 0, 351 >,
 	< 353, 29, 1, 90, 62, 114, 9, 352 >,
 	< 354, 29, 7, 0, 0, 117, 3, 353 >,
 	< 355, 29, 10, 0, 78, 181, 7, 354 >,
 	< 356, 29, 10, 44, 45, 164, 2, 355 >,
 	< 357, 29, 9, 0, 0, 124, 6, 356 >,
 	< 358, 29, 6, 0, 73, 150, 8, 357 >,
 	< 359, 29, 4, 54, 0, 189, 5, 358 >,
 	// order 30
 	< 360, 30, 3, 93, 0, 155, 4, -1 >,
 	< 361, 30, 5, 57, 80, 117, 1, 360 >,
 	< 362, 30, 6, 94, 32, 187, 0, 361 >,
 	< 363, 30, 10, 0, 46, 157, 9, 362 >,
 	< 364, 30, 8, 0, 83, 103, 3, 363 >,
 	< 365, 30, 7, 86, 0, 101, 7, 364 >,
 	< 366, 30, 6, 67, 0, 176, 2, 365 >,
 	< 367, 30, 1, 0, 97, 144, 6, 366 >,
 	< 368, 30, 8, 0, 0, 101, 8, 367 >,
 	< 369, 30, 8, 95, 0, 151, 5, 368 >,
 	< 370, 30, 6, 0, 76, 170, 4, 369 >,
 	< 371, 30, 9, 47, 58, 101, 1, 370 >,
 	// order 31
 	< 372, 31, 6, 48, 0, 197, 0, -1 >,
 	< 373, 31, 9, 0, 0, 128, 9, 372 >,
 	< 374, 31, 9, 60, 86, 177, 3, 373 >,
 	< 375, 31, 4, 0, 100, 135, 7, 374 >,
 	< 376, 31, 8, 0, 0, 190, 2, 375 >,
 	< 377, 31, 9, 40, 63, 118, 6, 376 >,
 	< 378, 31, 8, 0, 0, 194, 8, 377 >,
 	< 379, 31, 10, 0, 0, 192, 5, 378 >,
 	< 380, 31, 1, 52, 42, 166, 4, 379 >,
 	< 381, 31, 9, 43, 95, 152, 1, 380 >,
 	< 382, 31, 4, 0, 33, 126, 0, 381 >,
 	< 383, 31, 1, 0, 0, 130, 9, 382 >,
 	// order 32
 	< 384, 32, 3, 68, 36, 107, 3, -1 >,
 	< 385, 32, 3, 0, 91, 172, 7, 384 >,
 	< 386, 32, 3, 0, 34, 102, 2, 385 >,
 	< 387, 32, 2, 0, 35, 112, 6, 386 >,
 	< 388, 32, 6, 0, 98, 185, 8, 387 >,
 	< 389, 32, 5, 52, 89, 159, 5, 388 >,
 	< 390, 32, 8, 85, 0, 179, 4, 389 >,
 	< 391, 32, 8, 0, 69, 168, 1, 390 >,
 	< 392, 32, 5, 44, 0, 101, 0, 391 >,
 	< 393, 32, 5, 31, 0, 185, 9, 392 >,
 	< 394, 32, 9, 0, 0, 174, 3, 393 >,
 	< 395, 32, 4, 94, 0, 162, 7, 394 >,
 	// order 33
 	< 396, 33, 7, 31, 0, 113, 2, -1 >,
 	< 397, 33, 5, 36, 47, 145, 6, 396 >,
 	< 398, 33, 2, 0, 61, 104, 8, 397 >,
 	< 399, 33, 4, 76, 31, 192, 5, 398 >,
 	< 400, 33, 3, 99, 63, 144, 4, 399 >,
 	< 401, 33, 1, 40, 89, 196, 1, 400 >,
 	< 402, 33, 10, 62, 35, 184, 0, 401 >,
 	< 403, 33, 4, 0, 85, 165, 9, 402 >,
 	< 404, 33, 7, 83, 79, 109, 3, 403 >,
 	< 405, 33, 10, 0, 0, 161, 7, 404 >,
 	< 406, 33, 7, 0, 0, 105, 2, 405 >,
 	< 407, 33, 4, 48, 0, 198, 6, 406 >,
 	// order 34
 	< 408, 34, 1, 53, 0, 158, 8, -1 >,
 	< 409, 34, 6, 55, 88, 151, 5, 408 >,
 	< 410, 34, 7, 66, 50, 101, 4, 409 >,
 	< 411, 34, 8, 55, 45, 158, 1, 410 >,
 	< 412, 34, 5, 0, 0, 149, 0, 411 >,
 	< 413, 34, 1, 80, 33, 129, 9, 412 >,
 	< 414, 34, 10, 31, 0, 166, 3, 413 >,
 	< 415, 34, 2, 0, 0, 174, 7, 414 >,
 	< 416, 34, 4, 0, 96, 171, 2, 415 >,
 	< 417, 34, 10, 83, 0, 127, 6, 416 >,
 	< 418, 34, 6, 45, 33, 192, 8, 417 >,
 	< 419, 34, 8, 0, 0, 158, 5, 418 >,
 	// order 35
 	< 420, 35, 5, 99, 0, 138, 4, -1 >,
 	< 421, 35, 1, 94, 55, 153, 1, 420 >,
 	< 422, 35, 5, 0, 0, 192, 0, 421 >,
 	< 423, 35, 2, 59, 69, 149, 9, 422 >,
 	< 424, 35, 2, 0, 64, 160, 3, 423 >,
 	< 425, 35, 8, 98, 0, 191, 7, 424 >,
 	< 426, 35, 9, 0, 50, 139, 2, 425 >,
 	< 427, 35, 5, 0, 78, 112, 6, 426 >,
 	< 428, 35, 7, 100, 36, 145, 8, 427 >,
 	< 429, 35, 3, 93, 0, 133, 5, 428 >,
 	< 430, 35, 8, 0, 0, 131, 4, 429 >,
 	< 431, 35, 6, 0, 85, 129, 1, 430 >,
 	// order 36
 	< 432, 36, 10, 65, 0, 166, 0, -1 >,
 	< 433, 36, 3, 81, 81, 106, 9, 432 >,
 	< 434, 36, 9, 60, 52, 138, 3, 433 >,
 	< 435, 36, 9, 0, 0, 152, 7, 434 >,
 	< 436, 36, 9, 0, 0, 157, 2, 435 >,
 	< 437, 36, 2, 61, 90, 105, 6, 436 >,
 	< 438, 36, 5, 57, 0, 165, 8, 437 >,
 	< 439, 36, 4, 35, 81, 149, 5, 438 >,
 	< 440, 36, 5, 0, 0, 146, 4, 439 >,
 	< 441, 36, 9, 0, 0, 200, 1, 440 >,
 	< 442, 36, 2, 70, 84, 112, 0, 441 >,
 	< 443, 36, 9, 0, 69, 148, 9, 442 >,
 	// order 37
 	< 444, 37, 3, 77, 72, 110, 3, -1 >,
 	< 445, 37, 5, 0, 0, 100, 7, 444 >,
 	< 446, 37, 9, 70, 0, 102, 2, 445 >,
 	< 447, 37, 5, 77, 0, 121, 6, 446 >,
 	< 448, 37, 8, 0, 78, 151, 8, 447 >,
 	< 449, 37, 9, 0, 30, 176, 5, 448 >,
 	< 450, 37, 9, 67, 0, 145, 4, 449 >,
 	< 451, 37, 8, 65, 55, 142, 1, 450 >,
 	< 452, 37, 8, 100, 0, 177, 0, 451 >,
 	< 453, 37, 1, 0, 78, 100, 9, 452 >,
 	< 454, 37, 9, 53, 32, 178, 3, 453 >,
 	< 455, 37, 10, 0, 97, 186, 7, 454 >,
 	// order 38
 	< 456, 38, 4, 0, 0, 121, 2, -1 >,
 	< 457, 38, 3, 0, 50, 168, 6, 456 >,
 	< 458, 38, 4, 83, 32, 126, 8, 457 >,
 	< 459, 38, 10, 0, 93, 195, 5, 458 >,
 	< 460, 38, 9, 0, 32, 187, 4, 459 >,
 	< 461, 38, 2, 59, 85, 134, 1, 460 >,
 	< 462, 38, 1, 0, 59, 149, 0, 461 >,
 	< 463, 38, 9, 0, 86, 123, 9, 462 >,
 	< 464, 38, 5, 0, 92, 102, 3, 463 >,
 	< 465, 38, 6, 84, 72, 143, 7, 464 >,
 	< 466, 38, 9, 0, 100, 172, 2, 465 >,
 	< 467, 38, 2, 0, 0, 158, 6, 466 >,
 	// order 39
 	< 468, 39, 6, 0, 33, 188, 8, -1 >,
 	< 469, 39, 4, 0, 85, 116, 5, 468 >,
 	< 470, 39, 3, 0, 0, 172, 4, 469 >,
 	< 471, 39, 5, 0, 0, 115, 1, 470 >,
 	< 472, 39, 9, 96, 41, 117, 0, 471 >,
 	< 473, 39, 10, 0, 0, 158, 9, 472 >,
 	< 474, 39, 5, 78, 63, 121, 3, 473 >,
 	< 475, 39, 7, 0, 0, 157, 7, 474 >,
 	< 476, 39, 10, 51, 0, 200, 2, 475 >,
 	< 477, 39, 7, 0, 0, 170, 6, 476 >,
 	< 478, 39, 3, 78, 99, 151, 8, 477 >,
 	< 479, 39, 5, 95, 0, 172, 5, 478 >,
 	// order 40
 	< 480, 40, 2, 97, 44, 100, 4, -1 >,
 	< 481, 40, 5, 82, 33, 129, 1, 480 >,
 	< 482, 40, 3, 41, 0, 134, 0, 481 >,
 	< 483, 40, 9, 67, 78, 154, 9, 482 >,
 	< 484, 40, 2, 0, 44, 172, 3, 483 >,
 	< 485, 40, 3, 0, 83, 195, 7, 484 >,
 	< 486, 40, 4, 0, 0, 172, 2, 485 >,
 	< 487, 40, 7, 100, 0, 179, 6, 486 >,
 	< 488, 40, 5, 47, 0, 148, 8, 487 >,
 	< 489, 40, 1, 54, 0, 178, 5, 488 >,
 	< 490, 40, 3, 91, 0, 109, 4, 489 >,
 	< 491, 40, 9, 63, 83, 129, 1, 490 >,
 	// order 41
 	< 492, 41, 7, 0, 0, 135, 0, -1 >,
 	< 493, 41, 9, 0, 61, 169, 9, 492 >,
 	< 494, 41, 1, 56, 0, 120, 3, 493 >,
 	< 495, 41, 8, 81, 0, 119, 7, 494 >,
 	< 496, 41, 10, 100, 63, 131, 2, 495 >,
 	< 497, 41, 6, 48, 100, 139, 6, 496 >,
 	< 498, 41, 2, 0, 0, 180, 8, 497 >,
 	< 499, 41, 5, 96, 91, 101, 5, 498 >,
 	< 500, 41, 9, 0, 75, 126, 4, 499 >,
 	< 501, 41, 8, 0, 0, 199, 1, 500 >,
 	< 502, 41, 10, 0, 90, 140, 0, 501 >,
 	< 503, 41, 7, 89, 0, 129, 9, 502 >,
 	// order 42
 	< 504, 42, 2, 70, 74, 146, 3, -1 >,
 	< 505, 42, 10, 58, 0, 192, 7, 504 >,
 	< 506, 42, 8, 53, 100, 160, 2, 505 >,
 	< 507, 42, 1, 33, 82, 191, 6, 506 >,
 	< 508, 42, 9, 0, 0, 158, 8, 507 >,
 	< 509, 42, 6, 0, 0, 193, 5, 508 >,
 	< 510, 42, 2, 56, 64, 132, 4, 509 >,
 	< 511, 42, 8, 0, 0, 127, 1, 510 >,
 	< 512, 42, 3, 36, 0, 113, 0, 511 >,
 	< 513, 42, 7, 0, 58, 109, 9, 512 >,
 	< 514, 42, 6, 0, 70, 140, 3, 513 >,
 	< 515, 42, 7, 73, 0, 188, 7, 514 >,
 	// order 43
 	< 516, 43, 5, 0, 0, 133, 2, -1 >,
 	< 517, 43, 9, 45, 58, 168, 6, 516 >,
 	< 518, 43, 9, 75, 66, 191, 8, 517 >,
 	< 519, 43, 9, 96, 50, 156, 5, 518 >,
 	< 520, 43, 8, 0, 0, 109, 4, 519 >,
 	< 521, 43, 10, 52, 75, 108, 1, 520 >,
 	< 522, 43, 7, 0, 82, 154, 0, 521 >,
 	< 523, 43, 8, 0, 0, 141, 9, 522 >,
 	< 524, 43, 7, 81, 0, 165, 3, 523 >,
 	< 525, 43, 4, 0, 0, 150, 7, 524 >,
 	< 526, 43, 9, 77, 71, 189, 2, 525 >,
 	< 527, 43, 8, 0, 80, 200, 6, 526 >,
 	// order 44
 	< 528, 44, 5, 0, 32, 182, 8, -1 >,
 	< 529, 44, 2, 0, 84, 136, 5, 528 >,
 	< 530, 44, 1, 80, 0, 162, 4, 529 >,
 	< 531, 44, 10, 87, 82, 169, 1, 530 >,
 	< 532, 44, 8, 31, 59, 178, 0, 531 >,
 	< 533, 44, 8, 98, 0, 183, 9, 532 >,
 	< 534, 44, 6, 0, 56, 100, 3, 533 >,
 	< 535, 44, 7, 0, 0, 101, 7, 534 >,
 	< 536, 44, 3, 0, 0, 178, 2, 535 >,
 	< 537, 44, 4, 85, 93, 180, 6, 536 >,
 	< 538, 44, 5, 0, 51, 166, 8, 537 >,
 	< 539, 44, 5, 49, 0, 141, 5, 538 >,
 	// order 45
 	< 540, 45, 7, 0, 38, 121, 4, -1 >,
 	< 541, 45, 1, 0, 0, 124, 1, 540 >,
 	< 542, 45, 10, 0, 0, 130, 0, 541 >,
 	< 543, 45, 8, 0, 0, 168, 9, 542 >,
 	< 544, 45, 3, 0, 0, 100, 3, 543 >,
 	< 545, 45, 8, 0, 0, 177, 7, 544 >,
 	< 546, 45, 7, 95, 0, 190, 2, 545 >,
 	< 547, 45, 5, 0, 33, 139, 6, 546 >,
 	< 548, 45, 3, 0, 0, 157, 8, 547 >,
 	< 549, 45, 4, 0, 81, 191, 5, 548 >,
 	< 550, 45, 6, 0, 47, 189, 4, 549 >,
 	< 551, 45, 2, 51, 96, 140, 1, 550 >,
 	// order 46
 	< 552, 46, 9, 76, 0, 155, 0, -1 >,
 	< 553, 46, 5, 87, 0, 152, 9, 552 >,
 	< 554, 46, 9, 0, 0, 133, 3, 553 >,
 	< 555, 46, 2, 76, 38, 199, 7, 554 >,
 	< 556, 46, 4, 0, 0, 165, 2, 555 >,
 	< 557, 46, 8, 52, 0, 114, 6, 556 >,
 	< 558, 46, 1, 0, 33, 165, 8, 557 >,
 	< 559, 46, 6, 0, 77, 101, 5, 558 >,
 	< 560, 46, 9, 89, 0, 138, 4, 559 >,
 	< 561, 46, 7, 73, 82, 120, 1, 560 >,
 	< 562, 46, 2, 80, 32, 184, 0, 561 >,
 	< 563, 46, 9, 0, 83, 111, 9, 562 >,
 	// order 47
 	< 564, 47, 6, 49, 0, 131, 3, -1 >,
 	< 565, 47, 4, 87, 42, 199, 7, 564 >,
 	< 566, 47, 7, 0, 0, 154, 2, 565 >,
 	< 567, 47, 7, 32, 0, 119, 6, 566 >,
 	< 568, 47, 4, 0, 95, 153, 8, 567 >,
 	< 569, 47, 9, 0, 78, 150, 5, 568 >,
 	< 570, 47, 9, 0, 0, 176, 4, 569 >,
 	< 571, 47, 4, 0, 0, 102, 1, 570 >,
 	< 572, 47, 4, 0, 0, 111, 0, 571 >,
 	< 573, 47, 10, 0, 0, 198, 9, 572 >,
 	< 574, 47, 5, 64, 0, 104, 3, 573 >,
 	< 575, 47, 10, 70, 46, 173, 7, 574 >,
 	// order 48
 	< 576, 48, 4, 62, 0, 199, 2, -1 >,
 	< 577, 48, 2, 0, 0, 195, 6, 576 >,
 	< 578, 48, 5, 0, 56, 156, 8, 577 >,
 	< 579, 48, 8, 91, 0, 128, 5, 578 >,
 	< 580, 48, 4, 82, 58, 123, 4, 579 >,
 	< 581, 48, 2, 62, 65, 169, 1, 580 >,
 	< 582, 48, 1, 0, 0, 175, 0, 581 >,
 	< 583, 48, 3, 98, 0, 200, 9, 582 >,
 	< 584, 48, 6, 46, 98, 119, 3, 583 >,
 	< 585, 48, 2, 52, 0, 168, 7, 584 >,
 	< 586, 48, 4, 0, 88, 161, 2, 585 >,
 	< 587, 48, 3, 0, 0, 186, 6, 586 >,
 	// order 49
 	< 588, 49, 7, 65, 0, 171, 8, -1 >,
 	< 589, 49, 5, 95, 67, 187, 5, 588 >,
 	< 590, 49, 9, 0, 0, 183, 4, 589 >,
 	< 591, 49, 3, 99, 0, 103, 1, 590 >,
 	< 592, 49, 1, 39, 88, 131, 0, 591 >,
 	< 593, 49, 7, 0, 40, 194, 9, 592 >,
 	< 594, 49, 9, 41, 0, 169, 3, 593 >,
 	< 595, 49, 2, 91, 77, 119, 7, 594 >,
 	< 596, 49, 8, 57, 44, 114, 2, 595 >,
 	< 597, 49, 1, 36, 0, 163, 6, 596 >,
 	< 598, 49, 1, 79, 93, 163, 8, 597 >,
 	< 599, 49, 4, 45, 0, 167, 5, 598 >
 };
